* #variable= 309 #constraint= 31
min: +1 x300 +2 x301 +4 x302 +8 x303 +16 x304 +32 x305 +64 x306 +128 x307 +256 x308 +512 x309 +1 x201 +1 x212 +1 x223 +1 x234 ;
 +1 x100 +1 x101 = 1 ;
 +1 x110 +1 x111 = 1 ;
 +1 x120 +1 x121 = 1 ;
 +1 x130 +1 x131 = 1 ;
 +1 x140 +1 x141 = 1 ;
+1 x100 +1 x110 +1 x201 <= 2 ;
+1 x100 -1 x110 -1 x201 <= 0 ;
+1 x100 -1 x110 +1 x201 >= 0 ;
+1 x110 +1 x120 +1 x212 <= 2 ;
+1 x110 -1 x120 -1 x212 <= 0 ;
+1 x110 -1 x120 +1 x212 >= 0 ;
+1 x120 +1 x130 +1 x223 <= 2 ;
+1 x120 -1 x130 -1 x223 <= 0 ;
+1 x120 -1 x130 +1 x223 >= 0 ;
+1 x130 +1 x140 +1 x234 <= 2 ;
+1 x130 -1 x140 -1 x234 <= 0 ;
+1 x130 -1 x140 +1 x234 >= 0 ;
+1 x101 +1 x111 +1 x201 <= 2 ;
+1 x101 -1 x111 -1 x201 <= 0 ;
+1 x101 -1 x111 +1 x201 >= 0 ;
+1 x111 +1 x121 +1 x212 <= 2 ;
+1 x111 -1 x121 -1 x212 <= 0 ;
+1 x111 -1 x121 +1 x212 >= 0 ;
+1 x121 +1 x131 +1 x223 <= 2 ;
+1 x121 -1 x131 -1 x223 <= 0 ;
+1 x121 -1 x131 +1 x223 >= 0 ;
+1 x131 +1 x141 +1 x234 <= 2 ;
+1 x131 -1 x141 -1 x234 <= 0 ;
+1 x131 -1 x141 +1 x234 >= 0 ;
+1 x300 +2 x301 +4 x302 +8 x303 +16 x304 +32 x305 +64 x306 +128 x307 +256 x308 +512 x309 -1 x100 -1 x110 -1 x120 -1 x130 -1 x140  >= 0 ;
+1 x300 +2 x301 +4 x302 +8 x303 +16 x304 +32 x305 +64 x306 +128 x307 +256 x308 +512 x309 -1 x101 -1 x111 -1 x121 -1 x131 -1 x141  >= 0 ;
